(set-info :source |printed by MathSAT|)
(declare-fun param_e03 () Bool)
(declare-fun call__DRAGON_.ite29 () Int)
(declare-fun call__DRAGON_.ite22 () Int)
(declare-fun call__DRAGON_.ite9 () Int)
(declare-fun call__DRAGON_.ite18 () Int)
(declare-fun call__DRAGON_.ite57 () Int)
(declare-fun call__DRAGON_.ite17 () Int)
(declare-fun call__DRAGON_.ite58 () Int)
(declare-fun call__DRAGON_.ite27 () Int)
(declare-fun call__DRAGON_.ite43 () Int)
(declare-fun call__DRAGON_.ite15 () Int)
(declare-fun call__DRAGON_.ite28 () Int)
(declare-fun call__DRAGON_.ite55 () Int)
(declare-fun param_init_invalid () Int)
(declare-fun call__DRAGON_.flby4 () Int)
(declare-fun call__DRAGON_.ite42 () Int)
(declare-fun _OK_ () Bool)
(declare-fun call__DRAGON_.ite59 () Int)
(declare-fun call__DRAGON_.ite44 () Int)
(declare-fun call_Sofar.Sofar () Bool)
(declare-fun call__DRAGON_.ite23 () Int)
(declare-fun param_e11 () Bool)
(declare-fun call__DRAGON_.ite31 () Int)
(declare-fun call__DRAGON_.ite39 () Int)
(declare-fun call__DRAGON_.ite46 () Int)
(declare-fun call__DRAGON_.ite8 () Int)
(declare-fun invalid () Int)
(declare-fun call__DRAGON_.ite10 () Int)
(declare-fun call__DRAGON_.ite61 () Int)
(declare-fun param_e04 () Bool)
(declare-fun call__DRAGON_.ite19 () Int)
(declare-fun call__DRAGON_.ite3 () Int)
(declare-fun param_e10 () Bool)
(declare-fun param_e08 () Bool)
(declare-fun call__DRAGON_.exclusive () Int)
(declare-fun call_excludes12.excludes () Bool)
(declare-fun param_e05 () Bool)
(declare-fun param_e07 () Bool)
(declare-fun param_e02 () Bool)
(declare-fun exclusive () Int)
(declare-fun call__DRAGON_.ite50 () Int)
(declare-fun call__DRAGON_.ite53 () Int)
(declare-fun call__DRAGON_.ite25 () Int)
(declare-fun call__DRAGON_.g02 () Bool)
(declare-fun call__DRAGON_.ite20 () Int)
(declare-fun call__DRAGON_.ite14 () Int)
(declare-fun call__DRAGON_.ite2 () Int)
(declare-fun dirty () Int)
(declare-fun call__DRAGON_.ite41 () Int)
(declare-fun call__DRAGON_.flby6 () Int)
(declare-fun call__DRAGON_.ite48 () Int)
(declare-fun param_e09 () Bool)
(declare-fun call__DRAGON_.shared () Int)
(declare-fun call__DRAGON_.ite60 () Int)
(declare-fun call__DRAGON_.flby5 () Int)
(declare-fun call__DRAGON_.ite33 () Int)
(declare-fun call__DRAGON_.erreur () Bool)
(declare-fun call__DRAGON_.ite7 () Int)
(declare-fun call__DRAGON_.flby () Int)
(declare-fun call__DRAGON_.ite12 () Int)
(declare-fun erreur () Bool)
(declare-fun call__DRAGON_.ite34 () Int)
(declare-fun call__DRAGON_.ite52 () Int)
(declare-fun shared_dirty () Int)
(declare-fun call__DRAGON_.ite32 () Int)
(declare-fun call__DRAGON_.mem_init () Int)
(declare-fun param_e12 () Bool)
(declare-fun call__DRAGON_.g08 () Bool)
(declare-fun call__DRAGON_.ite24 () Int)
(declare-fun call__DRAGON_.flby2 () Int)
(declare-fun call__DRAGON_.ite36 () Int)
(declare-fun call__DRAGON_.ite6 () Int)
(declare-fun call__DRAGON_.ite () Bool)
(declare-fun call__DRAGON_.ite13 () Int)
(declare-fun call__DRAGON_.ite11 () Int)
(declare-fun call__DRAGON_.ite35 () Int)
(declare-fun call__DRAGON_.ite49 () Int)
(declare-fun param_e01 () Bool)
(declare-fun call__DRAGON_.dirty () Int)
(declare-fun call__DRAGON_.g06 () Bool)
(declare-fun call__DRAGON_.ite51 () Int)
(declare-fun call__DRAGON_.ite16 () Int)
(declare-fun call__DRAGON_.ite30 () Int)
(declare-fun call__DRAGON_.ite5 () Int)
(declare-fun call__DRAGON_.flby3 () Int)
(declare-fun call__DRAGON_.ite37 () Int)
(declare-fun call__DRAGON_.ite21 () Int)
(declare-fun call__DRAGON_.g05 () Bool)
(declare-fun shared () Int)
(declare-fun call__DRAGON_.ite38 () Int)
(declare-fun call__DRAGON_.ite47 () Int)
(declare-fun call_Sofar.flby () Bool)
(declare-fun call__DRAGON_.ite4 () Int)
(declare-fun call__DRAGON_.ite40 () Int)
(declare-fun call__DRAGON_.ite56 () Int)
(declare-fun call__DRAGON_.invalid () Int)
(declare-fun param_e06 () Bool)
(declare-fun call__DRAGON_.ite26 () Int)
(declare-fun call__DRAGON_.ite45 () Int)
(declare-fun call__DRAGON_.g04 () Bool)
(declare-fun call__DRAGON_.ite54 () Int)
(declare-fun call__DRAGON_.shared_dirty () Int)
(define-fun .def_1706 () Bool (= call_Sofar.flby call_Sofar.Sofar))
(define-fun .def_1498 () Bool (not param_e02))
(define-fun .def_1479 () Bool (not param_e01))
(define-fun .def_1604 () Bool (and .def_1479 .def_1498))
(define-fun .def_1539 () Bool (not param_e03))
(define-fun .def_1605 () Bool (and .def_1539 .def_1604))
(define-fun .def_1555 () Bool (not param_e04))
(define-fun .def_1606 () Bool (and .def_1555 .def_1605))
(define-fun .def_1571 () Bool (not param_e05))
(define-fun .def_1607 () Bool (and .def_1571 .def_1606))
(define-fun .def_1370 () Bool (not param_e06))
(define-fun .def_1608 () Bool (and .def_1370 .def_1607))
(define-fun .def_1351 () Bool (not param_e07))
(define-fun .def_1609 () Bool (and .def_1351 .def_1608))
(define-fun .def_1388 () Bool (not param_e08))
(define-fun .def_1610 () Bool (and .def_1388 .def_1609))
(define-fun .def_1247 () Bool (not param_e09))
(define-fun .def_1611 () Bool (and .def_1247 .def_1610))
(define-fun .def_1253 () Bool (not param_e10))
(define-fun .def_1612 () Bool (and .def_1253 .def_1611))
(define-fun .def_1260 () Bool (not param_e11))
(define-fun .def_1613 () Bool (and .def_1260 .def_1612))
(define-fun .def_1267 () Bool (not param_e12))
(define-fun .def_1691 () Bool (and .def_1267 .def_1613))
(define-fun .def_1680 () Bool (and param_e01 .def_1498))
(define-fun .def_1681 () Bool (and .def_1539 .def_1680))
(define-fun .def_1682 () Bool (and .def_1555 .def_1681))
(define-fun .def_1683 () Bool (and .def_1571 .def_1682))
(define-fun .def_1684 () Bool (and .def_1370 .def_1683))
(define-fun .def_1685 () Bool (and .def_1351 .def_1684))
(define-fun .def_1686 () Bool (and .def_1388 .def_1685))
(define-fun .def_1687 () Bool (and .def_1247 .def_1686))
(define-fun .def_1688 () Bool (and .def_1253 .def_1687))
(define-fun .def_1689 () Bool (and .def_1260 .def_1688))
(define-fun .def_1690 () Bool (and .def_1267 .def_1689))
(define-fun .def_1692 () Bool (or .def_1690 .def_1691))
(define-fun .def_1669 () Bool (and .def_1479 param_e02))
(define-fun .def_1670 () Bool (and .def_1539 .def_1669))
(define-fun .def_1671 () Bool (and .def_1555 .def_1670))
(define-fun .def_1672 () Bool (and .def_1571 .def_1671))
(define-fun .def_1673 () Bool (and .def_1370 .def_1672))
(define-fun .def_1674 () Bool (and .def_1351 .def_1673))
(define-fun .def_1675 () Bool (and .def_1388 .def_1674))
(define-fun .def_1676 () Bool (and .def_1247 .def_1675))
(define-fun .def_1677 () Bool (and .def_1253 .def_1676))
(define-fun .def_1678 () Bool (and .def_1260 .def_1677))
(define-fun .def_1679 () Bool (and .def_1267 .def_1678))
(define-fun .def_1693 () Bool (or .def_1679 .def_1692))
(define-fun .def_1659 () Bool (and param_e03 .def_1604))
(define-fun .def_1660 () Bool (and .def_1555 .def_1659))
(define-fun .def_1661 () Bool (and .def_1571 .def_1660))
(define-fun .def_1662 () Bool (and .def_1370 .def_1661))
(define-fun .def_1663 () Bool (and .def_1351 .def_1662))
(define-fun .def_1664 () Bool (and .def_1388 .def_1663))
(define-fun .def_1665 () Bool (and .def_1247 .def_1664))
(define-fun .def_1666 () Bool (and .def_1253 .def_1665))
(define-fun .def_1667 () Bool (and .def_1260 .def_1666))
(define-fun .def_1668 () Bool (and .def_1267 .def_1667))
(define-fun .def_1694 () Bool (or .def_1668 .def_1693))
(define-fun .def_1650 () Bool (and param_e04 .def_1605))
(define-fun .def_1651 () Bool (and .def_1571 .def_1650))
(define-fun .def_1652 () Bool (and .def_1370 .def_1651))
(define-fun .def_1653 () Bool (and .def_1351 .def_1652))
(define-fun .def_1654 () Bool (and .def_1388 .def_1653))
(define-fun .def_1655 () Bool (and .def_1247 .def_1654))
(define-fun .def_1656 () Bool (and .def_1253 .def_1655))
(define-fun .def_1657 () Bool (and .def_1260 .def_1656))
(define-fun .def_1658 () Bool (and .def_1267 .def_1657))
(define-fun .def_1695 () Bool (or .def_1658 .def_1694))
(define-fun .def_1642 () Bool (and param_e05 .def_1606))
(define-fun .def_1643 () Bool (and .def_1370 .def_1642))
(define-fun .def_1644 () Bool (and .def_1351 .def_1643))
(define-fun .def_1645 () Bool (and .def_1388 .def_1644))
(define-fun .def_1646 () Bool (and .def_1247 .def_1645))
(define-fun .def_1647 () Bool (and .def_1253 .def_1646))
(define-fun .def_1648 () Bool (and .def_1260 .def_1647))
(define-fun .def_1649 () Bool (and .def_1267 .def_1648))
(define-fun .def_1696 () Bool (or .def_1649 .def_1695))
(define-fun .def_1635 () Bool (and param_e06 .def_1607))
(define-fun .def_1636 () Bool (and .def_1351 .def_1635))
(define-fun .def_1637 () Bool (and .def_1388 .def_1636))
(define-fun .def_1638 () Bool (and .def_1247 .def_1637))
(define-fun .def_1639 () Bool (and .def_1253 .def_1638))
(define-fun .def_1640 () Bool (and .def_1260 .def_1639))
(define-fun .def_1641 () Bool (and .def_1267 .def_1640))
(define-fun .def_1697 () Bool (or .def_1641 .def_1696))
(define-fun .def_1629 () Bool (and param_e07 .def_1608))
(define-fun .def_1630 () Bool (and .def_1388 .def_1629))
(define-fun .def_1631 () Bool (and .def_1247 .def_1630))
(define-fun .def_1632 () Bool (and .def_1253 .def_1631))
(define-fun .def_1633 () Bool (and .def_1260 .def_1632))
(define-fun .def_1634 () Bool (and .def_1267 .def_1633))
(define-fun .def_1698 () Bool (or .def_1634 .def_1697))
(define-fun .def_1624 () Bool (and param_e08 .def_1609))
(define-fun .def_1625 () Bool (and .def_1247 .def_1624))
(define-fun .def_1626 () Bool (and .def_1253 .def_1625))
(define-fun .def_1627 () Bool (and .def_1260 .def_1626))
(define-fun .def_1628 () Bool (and .def_1267 .def_1627))
(define-fun .def_1699 () Bool (or .def_1628 .def_1698))
(define-fun .def_1620 () Bool (and param_e09 .def_1610))
(define-fun .def_1621 () Bool (and .def_1253 .def_1620))
(define-fun .def_1622 () Bool (and .def_1260 .def_1621))
(define-fun .def_1623 () Bool (and .def_1267 .def_1622))
(define-fun .def_1700 () Bool (or .def_1623 .def_1699))
(define-fun .def_1617 () Bool (and param_e10 .def_1611))
(define-fun .def_1618 () Bool (and .def_1260 .def_1617))
(define-fun .def_1619 () Bool (and .def_1267 .def_1618))
(define-fun .def_1701 () Bool (or .def_1619 .def_1700))
(define-fun .def_1615 () Bool (and param_e11 .def_1612))
(define-fun .def_1616 () Bool (and .def_1267 .def_1615))
(define-fun .def_1702 () Bool (or .def_1616 .def_1701))
(define-fun .def_1614 () Bool (and param_e12 .def_1613))
(define-fun .def_1703 () Bool (or .def_1614 .def_1702))
(define-fun .def_1704 () Bool (= call_excludes12.excludes .def_1703))
(define-fun .def_1602 () Bool (= call__DRAGON_.mem_init call__DRAGON_.flby))
(define-fun .def_1600 () Bool (= call__DRAGON_.erreur call__DRAGON_.ite))
(define-fun .def_1598 () Bool (= call__DRAGON_.flby6 call__DRAGON_.invalid))
(define-fun .def_1596 () Bool (= call__DRAGON_.flby5 call__DRAGON_.dirty))
(define-fun .def_1594 () Bool (= call__DRAGON_.flby4 call__DRAGON_.shared_dirty))
(define-fun .def_1592 () Bool (= call__DRAGON_.flby3 call__DRAGON_.shared))
(define-fun .def_1589 () Bool (= call__DRAGON_.flby2 call__DRAGON_.exclusive))
(define-fun .def_1584 () Bool (<= 2 call__DRAGON_.exclusive))
(define-fun .def_1586 () Bool (not .def_1584))
(define-fun .def_1587 () Bool (or call__DRAGON_.ite .def_1586))
(define-fun .def_1583 () Bool (not call__DRAGON_.ite))
(define-fun .def_1585 () Bool (or .def_1583 .def_1584))
(define-fun .def_1588 () Bool (and .def_1585 .def_1587))
(define-fun .def_1590 () Bool (and .def_1588 .def_1589))
(define-fun .def_1578 () Bool (= call__DRAGON_.ite41 call__DRAGON_.ite42))
(define-fun .def_1579 () Bool (or param_e05 .def_1578))
(define-fun .def_1575 () Bool (= call__DRAGON_.ite42 call__DRAGON_.ite35))
(define-fun .def_1576 () Bool (or .def_1571 .def_1575))
(define-fun .def_1570 () Bool (= call__DRAGON_.ite13 call__DRAGON_.ite20))
(define-fun .def_1572 () Bool (or .def_1570 .def_1571))
(define-fun .def_1567 () Bool (= call__DRAGON_.ite19 call__DRAGON_.ite20))
(define-fun .def_1569 () Bool (or .def_1567 param_e05))
(define-fun .def_1573 () Bool (and .def_1569 .def_1572))
(define-fun .def_1577 () Bool (and .def_1573 .def_1576))
(define-fun .def_1580 () Bool (and .def_1577 .def_1579))
(define-fun .def_1563 () Bool (= call__DRAGON_.ite43 call__DRAGON_.ite42))
(define-fun .def_1564 () Bool (or param_e04 .def_1563))
(define-fun .def_1559 () Bool (= call__DRAGON_.ite43 call__DRAGON_.ite34))
(define-fun .def_1560 () Bool (or .def_1555 .def_1559))
(define-fun .def_1554 () Bool (= call__DRAGON_.ite23 call__DRAGON_.ite30))
(define-fun .def_1556 () Bool (or .def_1554 .def_1555))
(define-fun .def_1551 () Bool (= call__DRAGON_.ite29 call__DRAGON_.ite30))
(define-fun .def_1553 () Bool (or .def_1551 param_e04))
(define-fun .def_1557 () Bool (and .def_1553 .def_1556))
(define-fun .def_1561 () Bool (and .def_1557 .def_1560))
(define-fun .def_1565 () Bool (and .def_1561 .def_1564))
(define-fun .def_1547 () Bool (= call__DRAGON_.ite44 call__DRAGON_.ite43))
(define-fun .def_1548 () Bool (or param_e03 .def_1547))
(define-fun .def_1543 () Bool (= call__DRAGON_.ite44 call__DRAGON_.ite33))
(define-fun .def_1544 () Bool (or .def_1539 .def_1543))
(define-fun .def_1538 () Bool (= call__DRAGON_.ite9 call__DRAGON_.ite4))
(define-fun .def_1540 () Bool (or .def_1538 .def_1539))
(define-fun .def_1534 () Bool (= call__DRAGON_.ite8 call__DRAGON_.ite9))
(define-fun .def_1536 () Bool (or .def_1534 param_e03))
(define-fun .def_1541 () Bool (and .def_1536 .def_1540))
(define-fun .def_1545 () Bool (and .def_1541 .def_1544))
(define-fun .def_1549 () Bool (and .def_1545 .def_1548))
(define-fun .def_1530 () Bool (= call__DRAGON_.ite31 call__DRAGON_.ite30))
(define-fun .def_1531 () Bool (or param_e02 .def_1530))
(define-fun .def_1526 () Bool (= call__DRAGON_.ite22 call__DRAGON_.ite31))
(define-fun .def_1527 () Bool (or .def_1498 .def_1526))
(define-fun .def_1521 () Bool (= call__DRAGON_.ite21 call__DRAGON_.ite20))
(define-fun .def_1522 () Bool (or param_e02 .def_1521))
(define-fun .def_1517 () Bool (= call__DRAGON_.ite12 call__DRAGON_.ite21))
(define-fun .def_1518 () Bool (or .def_1498 .def_1517))
(define-fun .def_1512 () Bool (= call__DRAGON_.ite10 call__DRAGON_.ite9))
(define-fun .def_1513 () Bool (or param_e02 .def_1512))
(define-fun .def_1508 () Bool (= call__DRAGON_.ite3 call__DRAGON_.ite10))
(define-fun .def_1509 () Bool (or .def_1498 .def_1508))
(define-fun .def_1505 () Bool (= call__DRAGON_.ite59 call__DRAGON_.ite60))
(define-fun .def_1506 () Bool (or param_e02 .def_1505))
(define-fun .def_1502 () Bool (= call__DRAGON_.ite60 call__DRAGON_.ite47))
(define-fun .def_1503 () Bool (or .def_1498 .def_1502))
(define-fun .def_1497 () Bool (= call__DRAGON_.ite32 call__DRAGON_.ite45))
(define-fun .def_1499 () Bool (or .def_1497 .def_1498))
(define-fun .def_1494 () Bool (= call__DRAGON_.ite45 call__DRAGON_.ite44))
(define-fun .def_1496 () Bool (or .def_1494 param_e02))
(define-fun .def_1500 () Bool (and .def_1496 .def_1499))
(define-fun .def_1504 () Bool (and .def_1500 .def_1503))
(define-fun .def_1507 () Bool (and .def_1504 .def_1506))
(define-fun .def_1510 () Bool (and .def_1507 .def_1509))
(define-fun .def_1514 () Bool (and .def_1510 .def_1513))
(define-fun .def_1519 () Bool (and .def_1514 .def_1518))
(define-fun .def_1523 () Bool (and .def_1519 .def_1522))
(define-fun .def_1528 () Bool (and .def_1523 .def_1527))
(define-fun .def_1532 () Bool (and .def_1528 .def_1531))
(define-fun .def_1488 () Bool (= call__DRAGON_.ite11 call__DRAGON_.ite10))
(define-fun .def_1489 () Bool (or param_e01 .def_1488))
(define-fun .def_1484 () Bool (= call__DRAGON_.ite2 call__DRAGON_.ite11))
(define-fun .def_1485 () Bool (or .def_1479 .def_1484))
(define-fun .def_1478 () Bool (= call__DRAGON_.ite61 call__DRAGON_.ite46))
(define-fun .def_1480 () Bool (or .def_1478 .def_1479))
(define-fun .def_1474 () Bool (= call__DRAGON_.ite61 call__DRAGON_.ite60))
(define-fun .def_1476 () Bool (or .def_1474 param_e01))
(define-fun .def_1481 () Bool (and .def_1476 .def_1480))
(define-fun .def_1486 () Bool (and .def_1481 .def_1485))
(define-fun .def_1490 () Bool (and .def_1486 .def_1489))
(define-fun .def_1468 () Bool (= call__DRAGON_.ite55 call__DRAGON_.ite52))
(define-fun .def_1469 () Bool (or .def_1260 .def_1468))
(define-fun .def_1465 () Bool (= call__DRAGON_.ite54 call__DRAGON_.ite55))
(define-fun .def_1466 () Bool (or param_e11 .def_1465))
(define-fun .def_1470 () Bool (and .def_1466 .def_1469))
(define-fun .def_1461 () Bool (= call__DRAGON_.ite56 call__DRAGON_.ite51))
(define-fun .def_1462 () Bool (or .def_1253 .def_1461))
(define-fun .def_1458 () Bool (= call__DRAGON_.ite56 call__DRAGON_.ite55))
(define-fun .def_1459 () Bool (or param_e10 .def_1458))
(define-fun .def_1463 () Bool (and .def_1459 .def_1462))
(define-fun .def_1455 () Bool (= erreur call__DRAGON_.erreur))
(define-fun .def_1450 () Bool (= call__DRAGON_.ite57 call__DRAGON_.ite50))
(define-fun .def_1451 () Bool (or .def_1247 .def_1450))
(define-fun .def_1447 () Bool (= call__DRAGON_.ite57 call__DRAGON_.ite56))
(define-fun .def_1448 () Bool (or param_e09 .def_1447))
(define-fun .def_1452 () Bool (and .def_1448 .def_1451))
(define-fun .def_1444 () Bool (= invalid call__DRAGON_.invalid))
(define-fun .def_1440 () Bool (= dirty call__DRAGON_.dirty))
(define-fun .def_1436 () Bool (= shared_dirty call__DRAGON_.shared_dirty))
(define-fun .def_1432 () Bool (= shared call__DRAGON_.shared))
(define-fun .def_1428 () Bool (= exclusive call__DRAGON_.exclusive))
(define-fun .def_1422 () Bool (not erreur))
(define-fun .def_1420 () Bool (not call_Sofar.Sofar))
(define-fun .def_1423 () Bool (or .def_1420 .def_1422))
(define-fun .def_1424 () Bool (= _OK_ .def_1423))
(define-fun .def_1414 () Bool (= call__DRAGON_.ite39 call__DRAGON_.ite40))
(define-fun .def_1415 () Bool (or param_e08 .def_1414))
(define-fun .def_1411 () Bool (= call__DRAGON_.ite37 call__DRAGON_.ite40))
(define-fun .def_1412 () Bool (or .def_1388 .def_1411))
(define-fun .def_1408 () Bool (= call__DRAGON_.ite27 call__DRAGON_.ite28))
(define-fun .def_1409 () Bool (or param_e08 .def_1408))
(define-fun .def_1405 () Bool (= call__DRAGON_.ite25 call__DRAGON_.ite28))
(define-fun .def_1406 () Bool (or .def_1388 .def_1405))
(define-fun .def_1402 () Bool (= call__DRAGON_.ite17 call__DRAGON_.ite18))
(define-fun .def_1403 () Bool (or param_e08 .def_1402))
(define-fun .def_1399 () Bool (= call__DRAGON_.ite18 call__DRAGON_.ite15))
(define-fun .def_1400 () Bool (or .def_1388 .def_1399))
(define-fun .def_1395 () Bool (= call__DRAGON_.ite7 call__DRAGON_.ite8))
(define-fun .def_1396 () Bool (or param_e08 .def_1395))
(define-fun .def_1392 () Bool (= call__DRAGON_.ite5 call__DRAGON_.ite8))
(define-fun .def_1393 () Bool (or .def_1388 .def_1392))
(define-fun .def_1387 () Bool (= call__DRAGON_.ite58 call__DRAGON_.ite49))
(define-fun .def_1389 () Bool (or .def_1387 .def_1388))
(define-fun .def_1383 () Bool (= call__DRAGON_.ite58 call__DRAGON_.ite57))
(define-fun .def_1385 () Bool (or .def_1383 param_e08))
(define-fun .def_1390 () Bool (and .def_1385 .def_1389))
(define-fun .def_1394 () Bool (and .def_1390 .def_1393))
(define-fun .def_1397 () Bool (and .def_1394 .def_1396))
(define-fun .def_1401 () Bool (and .def_1397 .def_1400))
(define-fun .def_1404 () Bool (and .def_1401 .def_1403))
(define-fun .def_1407 () Bool (and .def_1404 .def_1406))
(define-fun .def_1410 () Bool (and .def_1407 .def_1409))
(define-fun .def_1413 () Bool (and .def_1410 .def_1412))
(define-fun .def_1416 () Bool (and .def_1413 .def_1415))
(define-fun .def_1378 () Bool (= call__DRAGON_.ite29 call__DRAGON_.ite28))
(define-fun .def_1379 () Bool (or param_e06 .def_1378))
(define-fun .def_1374 () Bool (= call__DRAGON_.ite24 call__DRAGON_.ite29))
(define-fun .def_1375 () Bool (or .def_1370 .def_1374))
(define-fun .def_1369 () Bool (= call__DRAGON_.ite19 call__DRAGON_.ite14))
(define-fun .def_1371 () Bool (or .def_1369 .def_1370))
(define-fun .def_1365 () Bool (= call__DRAGON_.ite18 call__DRAGON_.ite19))
(define-fun .def_1367 () Bool (or .def_1365 param_e06))
(define-fun .def_1372 () Bool (and .def_1367 .def_1371))
(define-fun .def_1376 () Bool (and .def_1372 .def_1375))
(define-fun .def_1380 () Bool (and .def_1376 .def_1379))
(define-fun .def_1360 () Bool (= call__DRAGON_.ite41 call__DRAGON_.ite40))
(define-fun .def_1361 () Bool (or param_e07 .def_1360))
(define-fun .def_1356 () Bool (= call__DRAGON_.ite36 call__DRAGON_.ite41))
(define-fun .def_1357 () Bool (or .def_1351 .def_1356))
(define-fun .def_1350 () Bool (= call__DRAGON_.ite59 call__DRAGON_.ite48))
(define-fun .def_1352 () Bool (or .def_1350 .def_1351))
(define-fun .def_1346 () Bool (= call__DRAGON_.ite58 call__DRAGON_.ite59))
(define-fun .def_1348 () Bool (or .def_1346 param_e07))
(define-fun .def_1353 () Bool (and .def_1348 .def_1352))
(define-fun .def_1358 () Bool (and .def_1353 .def_1357))
(define-fun .def_1362 () Bool (and .def_1358 .def_1361))
(define-fun .def_1381 () Bool (and .def_1362 .def_1380))
(define-fun .def_1417 () Bool (and .def_1381 .def_1416))
(define-fun .def_1425 () Bool (and .def_1417 .def_1424))
(define-fun .def_1429 () Bool (and .def_1425 .def_1428))
(define-fun .def_1433 () Bool (and .def_1429 .def_1432))
(define-fun .def_1437 () Bool (and .def_1433 .def_1436))
(define-fun .def_1441 () Bool (and .def_1437 .def_1440))
(define-fun .def_1445 () Bool (and .def_1441 .def_1444))
(define-fun .def_1453 () Bool (and .def_1445 .def_1452))
(define-fun .def_1456 () Bool (and .def_1453 .def_1455))
(define-fun .def_1464 () Bool (and .def_1456 .def_1463))
(define-fun .def_1471 () Bool (and .def_1464 .def_1470))
(define-fun .def_1491 () Bool (and .def_1471 .def_1490))
(define-fun .def_1533 () Bool (and .def_1491 .def_1532))
(define-fun .def_1550 () Bool (and .def_1533 .def_1549))
(define-fun .def_1566 () Bool (and .def_1550 .def_1565))
(define-fun .def_1581 () Bool (and .def_1566 .def_1580))
(define-fun .def_1591 () Bool (and .def_1581 .def_1590))
(define-fun .def_1593 () Bool (and .def_1591 .def_1592))
(define-fun .def_1595 () Bool (and .def_1593 .def_1594))
(define-fun .def_1597 () Bool (and .def_1595 .def_1596))
(define-fun .def_1599 () Bool (and .def_1597 .def_1598))
(define-fun .def_1601 () Bool (and .def_1599 .def_1600))
(define-fun .def_1603 () Bool (and .def_1601 .def_1602))
(define-fun .def_1705 () Bool (and .def_1603 .def_1704))
(define-fun .def_1707 () Bool (and .def_1705 .def_1706))
(define-fun .def_1337 () Bool (<= param_init_invalid 0))
(define-fun .def_1338 () Bool (not .def_1337))
(define-fun .def_1340 () Bool (and .def_1338 call_excludes12.excludes))
(define-fun .def_1342 () Bool (= .def_1340 call_Sofar.flby))
(define-fun .def_1335 () Bool (= call__DRAGON_.flby4 0))
(define-fun .def_1332 () Bool (= call__DRAGON_.flby3 0))
(define-fun .def_1329 () Bool (= call__DRAGON_.flby2 0))
(define-fun .def_1326 () Bool (= param_init_invalid call__DRAGON_.flby))
(define-fun .def_1320 () Bool (= call__DRAGON_.ite37 0))
(define-fun .def_1313 () Bool (not call__DRAGON_.g08))
(define-fun .def_1321 () Bool (or .def_1313 .def_1320))
(define-fun .def_1316 () Bool (= call__DRAGON_.ite5 0))
(define-fun .def_1317 () Bool (or .def_1313 .def_1316))
(define-fun .def_1311 () Bool (= call__DRAGON_.ite25 1))
(define-fun .def_1314 () Bool (or .def_1311 .def_1313))
(define-fun .def_1318 () Bool (and .def_1314 .def_1317))
(define-fun .def_1322 () Bool (and .def_1318 .def_1321))
(define-fun .def_1307 () Bool (= call__DRAGON_.ite24 1))
(define-fun .def_1305 () Bool (not call__DRAGON_.g06))
(define-fun .def_1308 () Bool (or .def_1305 .def_1307))
(define-fun .def_1301 () Bool (= call__DRAGON_.ite13 0))
(define-fun .def_1299 () Bool (not call__DRAGON_.g05))
(define-fun .def_1302 () Bool (or .def_1299 .def_1301))
(define-fun .def_1295 () Bool (= call__DRAGON_.ite23 0))
(define-fun .def_1293 () Bool (not call__DRAGON_.g04))
(define-fun .def_1296 () Bool (or .def_1293 .def_1295))
(define-fun .def_1288 () Bool (= call__DRAGON_.ite3 0))
(define-fun .def_1285 () Bool (not call__DRAGON_.g02))
(define-fun .def_1289 () Bool (or .def_1285 .def_1288))
(define-fun .def_1283 () Bool (= call__DRAGON_.ite32 0))
(define-fun .def_1286 () Bool (or .def_1283 .def_1285))
(define-fun .def_1290 () Bool (and .def_1286 .def_1289))
(define-fun .def_1280 () Bool (= call__DRAGON_.flby6 call__DRAGON_.mem_init))
(define-fun .def_1276 () Bool (= call__DRAGON_.flby5 0))
(define-fun .def_1271 () Bool (= call__DRAGON_.ite53 call__DRAGON_.ite54))
(define-fun .def_1272 () Bool (or .def_1267 .def_1271))
(define-fun .def_1265 () Bool (= call__DRAGON_.ite6 call__DRAGON_.ite7))
(define-fun .def_1268 () Bool (or .def_1265 .def_1267))
(define-fun .def_1273 () Bool (and .def_1268 .def_1272))
(define-fun .def_1258 () Bool (= call__DRAGON_.ite26 call__DRAGON_.ite27))
(define-fun .def_1261 () Bool (or .def_1258 .def_1260))
(define-fun .def_1251 () Bool (= call__DRAGON_.ite16 call__DRAGON_.ite17))
(define-fun .def_1254 () Bool (or .def_1251 .def_1253))
(define-fun .def_1245 () Bool (= call__DRAGON_.ite38 call__DRAGON_.ite39))
(define-fun .def_1248 () Bool (or .def_1245 .def_1247))
(define-fun .def_1255 () Bool (and .def_1248 .def_1254))
(define-fun .def_1262 () Bool (and .def_1255 .def_1261))
(define-fun .def_1274 () Bool (and .def_1262 .def_1273))
(define-fun .def_1277 () Bool (and .def_1274 .def_1276))
(define-fun .def_1281 () Bool (and .def_1277 .def_1280))
(define-fun .def_1291 () Bool (and .def_1281 .def_1290))
(define-fun .def_1297 () Bool (and .def_1291 .def_1296))
(define-fun .def_1303 () Bool (and .def_1297 .def_1302))
(define-fun .def_1309 () Bool (and .def_1303 .def_1308))
(define-fun .def_1323 () Bool (and .def_1309 .def_1322))
(define-fun .def_1327 () Bool (and .def_1323 .def_1326))
(define-fun .def_1330 () Bool (and .def_1327 .def_1329))
(define-fun .def_1333 () Bool (and .def_1330 .def_1332))
(define-fun .def_1336 () Bool (and .def_1333 .def_1335))
(define-fun .def_1343 () Bool (and .def_1336 .def_1342))
(define-fun .def_1708 () Bool (and .def_1343 .def_1707))
(assert .def_1708)
